10  5
  0  6  1  42  2  85  3  54  4  65
  0  70  1  17  2  26  3  63  4  38
  0  75  1  29  2  23  3  60  4  95
  0  21  1  8  2  31  3  2  4  60
  0  4  1  28  2  2  3  39  4  6
  0  33  1  49  2  25  3  24  4  78
  0  47  1  29  2  73  3  65  4  13
  0  75  1  5  2  23  3  36  4  26
  0  84  1  93  2  92  3  92  4  41
  0  75  1  92  2  43  3  35  4  46
